r = [
0,56,41,14,37,1,41,6,19,71,59,0
];
p = [
0,12,7,21,9,26,12,2,10,4,22,0
];
e = [
0,2,10,10,13,3,20,12,17,5,15,0
];
d = [
0,71,50,35,50,27,53,18,37,81,81,83
];
d_bar = [
0,72,51,37,51,30,54,19,38,82,83,83
];
w = [
0,2,10,5,13,1,20,12,17,5,7.5,0
];
